c FILE /home/rafael/Documents/HappySet/MIHS/inputs/happygen/output/graph_scale_free_k3_p0.3_v50_20241127_082414.txt
c SOURCE This is a scale-free graph formed for the happy graph colouring problem.
c DESCRIPTION It was generated using the problem generator of Rhyd Lewis
c
c GRAPH STATS
c Seed                             = -1511136391
c Number of Nodes                  = 50
c Number of colours k              = 3
c Number of pre-assignments        = 15
c Number of links per new node     = 5
c Density                          = 0.191837
c 
c The degrees of nodes 1 to 50, respectively, are as follows 
c [23, 22, 21, 21, 21, 20, 19, 16, 13, 11, 11, 11, 11, 11, 10, 10, 9, 9, 9, 9, 8, 8, 8, 8, 7, 7, 
c  7, 7, 7, 7, 7, 7, 6, 6, 6, 6, 6, 5, 5, 5, 5, 5, 5, 5, 5, 5, 5, 5, 5, 5] 
c  
p edge 50 235 3
e 1 2
e 1 3
e 1 4
e 1 5
e 1 6
e 1 7
e 1 8
e 1 9
e 1 10
e 1 11
e 1 12
e 1 15
e 1 17
e 1 19
e 1 21
e 1 29
e 1 31
e 1 34
e 1 38
e 1 41
e 1 42
e 1 46
e 1 48
e 2 3
e 2 4
e 2 5
e 2 6
e 2 7
e 2 8
e 2 9
e 2 10
e 2 11
e 2 13
e 2 14
e 2 15
e 2 17
e 2 18
e 2 21
e 2 25
e 2 33
e 2 36
e 2 44
e 2 47
e 2 48
e 3 4
e 3 5
e 3 6
e 3 7
e 3 8
e 3 9
e 3 10
e 3 13
e 3 14
e 3 18
e 3 20
e 3 21
e 3 22
e 3 29
e 3 32
e 3 40
e 3 43
e 3 46
e 3 47
e 4 6
e 4 7
e 4 8
e 4 11
e 4 13
e 4 15
e 4 17
e 4 18
e 4 19
e 4 21
e 4 23
e 4 26
e 4 27
e 4 34
e 4 37
e 4 41
e 4 47
e 4 50
e 5 8
e 5 9
e 5 12
e 5 13
e 5 17
e 5 18
e 5 20
e 5 26
e 5 27
e 5 28
e 5 30
e 5 31
e 5 36
e 5 39
e 5 43
e 5 45
e 5 47
e 5 48
e 6 7
e 6 9
e 6 14
e 6 16
e 6 19
e 6 20
e 6 22
e 6 23
e 6 25
e 6 31
e 6 35
e 6 36
e 6 38
e 6 39
e 6 42
e 6 50
e 7 8
e 7 10
e 7 11
e 7 13
e 7 14
e 7 16
e 7 17
e 7 21
e 7 34
e 7 36
e 7 40
e 7 45
e 7 49
e 7 50
e 8 9
e 8 10
e 8 20
e 8 22
e 8 24
e 8 32
e 8 33
e 8 38
e 8 42
e 8 50
e 9 15
e 9 22
e 9 23
e 9 24
e 9 26
e 9 41
e 9 42
e 10 11
e 10 12
e 10 24
e 10 29
e 10 30
e 10 49
e 11 12
e 11 23
e 11 28
e 11 31
e 11 39
e 11 44
e 12 15
e 12 17
e 12 25
e 12 27
e 12 28
e 12 33
e 12 45
e 13 18
e 13 23
e 13 26
e 13 32
e 13 46
e 13 47
e 14 16
e 14 17
e 14 19
e 14 34
e 14 35
e 14 38
e 14 40
e 15 19
e 15 22
e 15 25
e 15 27
e 15 46
e 16 17
e 16 18
e 16 24
e 16 26
e 16 28
e 16 37
e 16 49
e 17 44
e 18 20
e 18 39
e 18 44
e 19 29
e 19 30
e 19 35
e 19 40
e 20 27
e 20 37
e 20 42
e 20 46
e 21 25
e 21 33
e 21 45
e 22 30
e 22 33
e 22 40
e 23 35
e 23 39
e 23 45
e 24 30
e 24 32
e 24 36
e 24 48
e 25 31
e 25 37
e 26 35
e 26 38
e 27 34
e 27 43
e 28 29
e 28 33
e 28 44
e 29 30
e 29 43
e 30 41
e 31 32
e 31 41
e 32 37
e 32 49
e 34 43
e 35 49
e 36 48
e 37 50
n 11 3
n 19 3
n 21 3
n 24 3
n 26 2
n 29 3
n 30 3
n 31 3
n 37 2
n 39 3
n 41 3
n 42 1
n 44 3
n 45 3
n 46 1
